
List of user-set options:

                                    Name   Value                used
                           compl_inf_tol = 1                     yes
                         constr_viol_tol = 1                     yes
                            dual_inf_tol = 1000                  yes
                           linear_solver = ma97                  yes
                              ma86_small = 1e-30                  no
                                  ma86_u = 0.0001                 no
                              ma97_order = best                  yes
                              ma97_small = 1e-30                 yes
                            ma97_switch1 = at_start              yes
                            ma97_switch2 = od_hd_reuse           yes
                                  ma97_u = 1e-06                 yes
                               ma97_umax = 0.5                   yes
                                max_iter = 1000                  yes
                    max_refinement_steps = 20                    yes
                    min_refinement_steps = 5                     yes
                                 mu_init = 1e-06                 yes
           mu_superlinear_decrease_power = 1.25                  yes
                   nlp_scaling_min_value = 1e-08                 yes
                        option_file_name = Preset_Case_21_pf.opt  yes
                             output_file = ./tmp/Preset_Case_21_pf.output  yes
                      print_user_options = yes                   yes
        required_infeasibility_reduction = 1                      no
                                     tol = 1e-08                 yes
                   warm_start_bound_frac = 1e-20                 yes
                   warm_start_bound_push = 1e-20                 yes
                   warm_start_init_point = yes                   yes
              warm_start_mult_bound_push = 1e-20                 yes
                warm_start_mult_init_max = 1e+40                 yes
             warm_start_slack_bound_frac = 1e-20                 yes
             warm_start_slack_bound_push = 1e-20                 yes

******************************************************************************
This program contains Ipopt, a library for large-scale nonlinear optimization.
 Ipopt is released as open source code under the Eclipse Public License (EPL).
         For more information visit http://projects.coin-or.org/Ipopt
******************************************************************************

This is Ipopt version 3.12.10, running with linear solver ma97.

Number of nonzeros in equality constraint Jacobian...:   123442
Number of nonzeros in inequality constraint Jacobian.:      213
Number of nonzeros in Lagrangian Hessian.............:    49069

Total number of variables............................:    31591
                     variables with only lower bounds:    12912
                variables with lower and upper bounds:    15130
                     variables with only upper bounds:        0
Total number of equality constraints.................:    31483
Total number of inequality constraints...............:       25
        inequality constraints with only lower bounds:        4
   inequality constraints with lower and upper bounds:        0
        inequality constraints with only upper bounds:       21

iter    objective    inf_pr   inf_du lg(mu)  ||d||  lg(rg) alpha_du alpha_pr  ls
   0 -4.7995638e+00 4.04e-03 1.02e+00  -6.0 0.00e+00    -  0.00e+00 0.00e+00   0
   1 -4.7990297e+00 6.47e-03 1.02e+00  -6.0 3.87e+05    -  1.60e-04 5.39e-05h  6
   2 -4.8008024e+00 6.46e-03 2.93e+01  -6.0 1.01e+04    -  1.30e-01 2.00e-03h  1
   3 -4.8064452e+00 6.42e-03 2.88e+01  -6.0 9.94e+03    -  4.66e-03 6.28e-03f  1
   4 -4.9523530e+00 8.77e-01 4.29e+02  -6.0 9.88e+03    -  2.23e-01 1.67e-01f  1
   5 -5.1809358e+00 3.45e+00 1.50e+03  -6.0 6.71e+03    -  5.09e-02 3.92e-01h  1
   6 -5.2151926e+00 3.27e+00 1.33e+03  -6.0 2.42e+03    -  7.37e-02 1.45e-01h  1
   7 -5.2739828e+00 3.49e+00 1.08e+03  -6.0 1.93e+03    -  7.09e-02 3.13e-01h  1
   8 -5.2725101e+00 3.36e+00 1.04e+03  -6.0 2.51e+00  -4.0 5.72e-01 3.69e-02h  1
   9 -5.3306426e+00 7.90e+00 1.27e+03  -6.0 1.63e+03    -  2.35e-02 6.46e-01h  1
iter    objective    inf_pr   inf_du lg(mu)  ||d||  lg(rg) alpha_du alpha_pr  ls
  10 -5.3299802e+00 7.84e+00 1.26e+03  -6.0 4.86e+00  -4.5 2.11e-01 8.46e-03h  1
  11 -5.2902293e+00 3.61e+00 6.30e+02  -6.0 2.22e+01  -5.0 1.95e-01 5.39e-01h  1
  12 -5.2624994e+00 2.27e-02 5.81e+01  -6.0 3.24e+01  -5.4 4.71e-01 1.00e+00h  1
  13 -5.2657697e+00 4.00e-01 5.68e+01  -6.0 6.76e+03    -  8.58e-02 1.94e-02h  1
  14 -5.2937935e+00 2.17e+01 4.05e+01  -6.0 5.19e+03    -  4.17e-02 1.85e-01h  1
  15 -5.3017073e+00 3.93e-02 1.92e+01  -6.0 4.60e+01  -5.9 3.87e-01 1.00e+00h  1
  16 -5.3179249e+00 1.30e-01 1.19e+01  -6.0 8.47e+01  -6.4 6.83e-01 8.55e-01h  1
  17 -5.3454109e+00 5.31e-01 5.86e+00  -6.0 2.34e+02  -6.9 3.13e-01 1.00e+00f  1
  18 -5.3618146e+00 1.35e+00 6.73e+00  -6.0 7.33e+02  -7.3 2.44e-01 2.45e-01h  1
  19 -5.4173436e+00 7.91e+00 5.73e+03  -6.0 4.40e+03    -  1.17e-01 2.30e-01h  1
iter    objective    inf_pr   inf_du lg(mu)  ||d||  lg(rg) alpha_du alpha_pr  ls
  20 -5.4259830e+00 3.37e+00 5.68e+02  -6.0 2.66e+02  -6.9 1.00e+00 5.74e-01h  1
  21 -5.4478296e+00 2.57e+01 1.96e+04  -6.0 8.21e+03    -  1.05e-02 1.26e-01h  1
  22 -5.4594823e+00 2.41e+01 3.50e+04  -6.0 3.25e+03    -  3.32e-01 8.45e-02h  1
  23 -5.4739713e+00 1.07e+01 3.71e+04  -6.0 4.08e+02  -7.4 1.33e-01 5.54e-01h  1
  24 -5.4806036e+00 2.51e+01 2.23e+05  -6.0 1.43e+04    -  5.78e-03 7.13e-02h  1
  25 -5.4876752e+00 2.38e+01 4.36e+05  -6.0 2.89e+03    -  2.56e-01 6.34e-02h  1
  26 -5.5020010e+00 2.35e+01 3.50e+05  -6.0 4.24e+03    -  1.18e-01 1.45e-01h  1
  27 -5.5104103e+00 2.18e+01 3.72e+05  -6.0 2.39e+03    -  2.03e-01 1.11e-01h  1
  28 -5.5370873e+00 1.50e+01 8.72e+04  -6.0 2.18e+03    -  2.00e-01 4.09e-01h  1
  29 -5.5520520e+00 1.14e+01 2.60e+05  -6.0 1.46e+03    -  1.70e-01 3.84e-01h  1
iter    objective    inf_pr   inf_du lg(mu)  ||d||  lg(rg) alpha_du alpha_pr  ls
  30 -5.5635282e+00 8.62e+00 7.33e+05  -6.0 9.82e+02    -  1.40e-01 2.83e-01h  1
  31r-5.5635282e+00 8.62e+00 1.00e+03   0.9 0.00e+00    -  0.00e+00 1.25e-07R  2
  32r-5.5845582e+00 8.62e+00 1.00e+03   0.9 5.07e+04    -  5.64e-07 2.80e-07f  1
  33 -5.5840248e+00 8.45e+00 7.85e+03  -6.0 1.52e+01    -  2.59e-06 2.03e-02h  1
  34 -5.5826983e+00 8.02e+00 7.45e+03  -6.0 1.52e+01    -  2.21e-02 5.10e-02h  1
  35 -5.5801205e+00 7.18e+00 6.67e+03  -6.0 1.52e+01    -  2.11e-01 1.04e-01h  1
  36 -5.5723432e+00 4.93e+00 4.58e+03  -6.0 1.58e+01    -  4.50e-01 3.14e-01h  1
  37 -5.5610536e+00 1.49e+00 1.38e+03  -6.0 1.43e+01    -  5.38e-01 6.98e-01h  1
  38 -5.5595754e+00 5.53e-01 5.14e+02  -6.0 3.29e+00    -  3.75e-01 6.28e-01h  1
  39 -5.5560738e+00 1.01e-01 9.38e+01  -6.0 1.37e+00    -  9.14e-01 8.18e-01h  1
iter    objective    inf_pr   inf_du lg(mu)  ||d||  lg(rg) alpha_du alpha_pr  ls
  40 -5.5573811e+00 5.44e-02 3.22e+01  -6.0 1.02e+01    -  3.69e-01 1.00e+00h  1
  41 -5.5575465e+00 4.76e-02 3.16e+01  -6.0 1.18e+01    -  8.39e-01 1.26e-01h  1
  42 -5.5624029e+00 9.94e-02 4.08e+00  -6.0 5.56e+01    -  8.91e-01 1.00e+00f  1
  43 -5.5671374e+00 2.86e-01 6.93e+00  -6.0 1.32e+02    -  9.52e-01 6.76e-01h  1
  44 -5.5689903e+00 2.94e-01 1.04e+01  -6.0 5.30e+02    -  9.18e-01 4.98e-01h  1
  45 -5.5690581e+00 2.74e+00 1.46e+01  -6.0 8.71e+02    -  9.46e-01 4.05e-01h  1
  46 -5.5689786e+00 2.61e+00 1.11e+01  -6.0 7.22e+02    -  1.38e-01 2.03e-01h  3
  47 -5.5684447e+00 2.25e-01 2.97e+03  -6.0 5.41e+02    -  9.98e-01 8.08e-01H  1
  48 -5.5683098e+00 1.74e-03 1.68e+00  -6.0 8.50e+00  -7.9 9.67e-01 1.00e+00h  1
  49 -5.5682911e+00 1.86e-01 8.64e-02  -6.0 9.76e+01    -  1.00e+00 1.00e+00h  1
iter    objective    inf_pr   inf_du lg(mu)  ||d||  lg(rg) alpha_du alpha_pr  ls
  50 -5.5682845e+00 1.28e-03 2.26e-04  -6.0 9.44e+00    -  1.00e+00 1.00e+00h  1
  51 -5.5682845e+00 6.28e-08 9.92e-09  -6.0 6.73e-02    -  1.00e+00 1.00e+00h  1
  52 -5.5685270e+00 8.51e+00 1.28e+01  -7.5 1.00e+03    -  6.42e-01 6.20e-01h  1
  53 -5.5685747e+00 1.12e+01 8.37e+00  -7.5 7.69e+02    -  7.73e-01 8.43e-01h  1
  54 -5.5685656e+00 8.28e+00 1.49e+01  -7.5 1.63e+02    -  1.00e+00 2.62e-01h  1
  55 -5.5685321e+00 2.29e-02 4.73e-02  -7.5 3.20e+01    -  1.00e+00 1.00e+00h  1
  56 -5.5685306e+00 3.80e-04 2.61e-05  -7.5 3.97e+00    -  1.00e+00 1.00e+00h  1
  57 -5.5685306e+00 5.16e-08 3.04e-09  -7.5 4.60e-02    -  1.00e+00 1.00e+00h  1
  58 -5.5685323e+00 6.58e-03 1.25e+00  -9.0 2.22e+01    -  9.25e-01 7.88e-01h  1
  59 -5.5685326e+00 5.38e-04 1.43e-03  -9.0 4.99e+00    -  1.00e+00 1.00e+00h  1
iter    objective    inf_pr   inf_du lg(mu)  ||d||  lg(rg) alpha_du alpha_pr  ls
  60 -5.5685326e+00 8.29e-10 2.68e-09  -9.0 6.69e-03    -  1.00e+00 1.00e+00h  1

Number of Iterations....: 60

                                   (scaled)                 (unscaled)
Objective...............:  -4.3504161242603274e+00   -5.5685326390532195e+00
Dual infeasibility......:   2.6812063869744156e-09    3.4319441753272522e-09
Constraint violation....:   6.8166206744420807e-10    8.2945916801691055e-10
Complementarity.........:   1.1151101513760409e-09    1.4273409937613323e-09
Overall NLP error.......:   2.6812063869744156e-09    3.4319441753272522e-09


Number of objective function evaluations             = 74
Number of objective gradient evaluations             = 61
Number of equality constraint evaluations            = 74
Number of inequality constraint evaluations          = 74
Number of equality constraint Jacobian evaluations   = 62
Number of inequality constraint Jacobian evaluations = 62
Number of Lagrangian Hessian evaluations             = 60
Total CPU secs in IPOPT (w/o function evaluations)   =    115.268
Total CPU secs in NLP function evaluations           =      2.415

EXIT: Optimal Solution Found.
